(declare-fun _substvar_1220_ () Bool)
(declare-fun _substvar_1320_ () Real)
(declare-const v1 Bool)
(declare-const v3 Bool)
(declare-const v5 Bool)
(declare-const v7 Bool)
(declare-const v8 Bool)
(declare-const r1 Real)
(declare-const r3 Real)
(declare-const r4 Real)
(declare-const r7 Real)
(push)
(assert (or (= r4 106246.0 (* 93373.0 r3 r1 r1 r4) r7 r7) (= v1 (not v3) false (or v5 v3 v7 v8) _substvar_1220_ false false (<= 0.0 r4 0.804609) false)))
(assert (or (>= (/ r3 (- r1)) 249497567.0 0.0) (= v1 (not v3) false (or v5 v3 v7 v8) false false (distinct r1 r4 _substvar_1320_ 7.0) false false)))
(check-sat)
(assert true)
(check-sat)
